NAME: ../File/prFile/tspFile/tsp_file3.tsp
COMMENT: TSP file generated by Python
TYPE: TSP
DIMENSION: 30
EDGE_WEIGHT_TYPE: EUC_2D
NODE_COORD_SECTION
1 8 66
2 96 65
3 87 6
4 95 10
5 26 6
6 25 23
7 44 29
8 69 85
9 3 3
10 21 63
11 1 79
12 77 74
13 8 73
14 20 94
15 98 1
16 23 69
17 37 89
18 3 12
19 82 14
20 95 93
21 64 37
22 26 37
23 62 96
24 99 28
25 13 9
26 63 10
27 14 59
28 23 3
29 27 40
30 33 39
EOF
